NAME : XML100_3262_13
DIMENSION : 101
NB_CLUSTERS : 6
CLUSTERING_ALG : KMeans
CLUSTERING_PARAMS : k(5)
CLUSTERS
1 0
2 15 26 33 35 38 45 53 60 61 66 70 74 77 81 83 86 93 94
3 7 11 14 16 17 25 32 34 41 62 63 67 68 71 84 87 88 90 97
4 4 10 12 20 21 27 28 30 36 37 40 47 51 57 59 72 73 76 78 82 85 92 96
5 3 5 6 9 13 19 22 24 44 48 49 50 54 58 79 89 91 95 99
6 1 2 8 18 23 29 31 39 42 43 46 52 55 56 64 65 69 75 80 98 100
EOF